6,1
0,1
8,1
0,1
2,2
0,2
3,2
0,2
4,3
3,1
0,1
0,1
8,2
9,2
0,2
6,2
5,2
2,3
4,1
0,4
0,4
0,4
3,3
6,3
0,3
0,3
8,3
2,1
7,4
4,4
6,4
0,3
0,3
0,5
3,5
1,5
5,6
3,4
1,4
4,7
8,7
7,5
0,5
0,5
0,5
0,6
8,4
0,6
3,7
0,7
2,8
5,5
4,5
9,9
1,6
0,6
3,6
7,7
6,8
8,8
9,8
2,9
5,9
8,6
2,6
0,7
5,7
0,8
0,8
1,9
6,9
7,9
9,6
6,7
2,7
1,8
7,8
5,8
4,9
8,9
3,9